c Output_time 06.06.2020 18:24:29_+0100 1591464269737554475
c ** Program information **
c program_name                          "DQBRG"
c version                               "0.3.0"
c date                                  "29.3.2020"
c gid_id                                "11f285002dd0387f0ebb216c4fcabf3f1c732df2"
c author                                "Oliver Kullmann"
c url                                   "https://github.com/OKullmann/oklibrary/blob/master/Satisfiability/Transformers/Generators/Random/DQBRG.cpp"
c ** Machine information **
c machine_name                          "csverify"
c bogomips                              7182.86
c ** Compilation information **
c compiler_version                      "g++ 8.3.0"
c compilation_date                      "Apr_21_2020 23:53:44"
c compilation_options                   "--std=c++17 -pedantic -Ofast -DNDEBUG -march=native -fwhole-program -static -fno-finite-math-only"
c NDEBUG                                1
c OPTIMIZE                              1
c ** Parameters **
c command-line                          "./DQBRG" "a400 400" "1200" "1500*2,3" "" "1959747134094409559,0,1586210163850395361,13,1755" ""
c output                                "DeQuBlRaGe_800_1500_3545957297944811007.dqdimacs"
c options                               "filtered,renamed"
c num_quantifier_blocks                 2
c  quantifier_blocks                    1:a1-400 2:e401-800
c  total_na                             400
c  total_ne                             400
c dependency_option                     ignore_given
c   total_possible_dependencies         160000
c   given_prefix_dependencies           160000
c   change_value                        1200
c   actual_dependencies                 1200
c num_clause-blocks                     1
c  clause-blocks                        1500 * {1-800,3,1/2}
c num_e-seeds                           20+5=25
c  e-seeds                              2 0 1 0 0 1200 3 800 2 400 0 400 1 1500 1 1 2 3 1 2 1959747134094409559 0 1586210163850395361 13 1755
p cnf 460 1500
a 1 2 3 4 5 6 7 8 9 10 11 12 13 14 15 16 17 18 19 20 21 22 23 24 25 26 27 28 29 30 31 32 33 34 35 36 37 38 39 40 41 42 43 44 45 46 47 48 49 50 51 52 53 54 55 56 57 58 59 60 0
d 61 0
d 62 35 0
d 63 0
d 64 0
d 65 0
d 66 0
d 67 7 0
d 68 0
d 69 34 0
d 70 0
d 71 0
d 72 19 59 0
d 73 0
d 74 0
d 75 0
d 76 15 0
d 77 45 60 0
d 78 40 0
d 79 0
d 80 0
d 81 0
d 82 0
d 83 0
d 84 0
d 85 0
d 86 0
d 87 40 47 0
d 88 13 34 0
d 89 27 0
d 90 0
d 91 0
d 92 0
d 93 0
d 94 0
d 95 0
d 96 0
d 97 0
d 98 48 58 0
d 99 38 44 0
d 100 0
d 101 29 47 0
d 102 0
d 103 0
d 104 0
d 105 5 0
d 106 0
d 107 0
d 108 31 0
d 109 0
d 110 36 0
d 111 0
d 112 0
d 113 0
d 114 0
d 115 40 0
d 116 49 0
d 117 48 0
d 118 28 0
d 119 0
d 120 35 0
d 121 0
d 122 0
d 123 9 0
d 124 0
d 125 0
d 126 0
d 127 49 54 0
d 128 0
d 129 16 49 0
d 130 48 0
d 131 0
d 132 0
d 133 0
d 134 0
d 135 7 47 0
d 136 18 59 0
d 137 26 0
d 138 0
d 139 0
d 140 3 0
d 141 8 27 0
d 142 7 0
d 143 0
d 144 34 0
d 145 0
d 146 0
d 147 0
d 148 19 27 46 0
d 149 24 0
d 150 0
d 151 33 37 45 0
d 152 46 0
d 153 0
d 154 19 0
d 155 0
d 156 42 0
d 157 22 0
d 158 0
d 159 38 0
d 160 26 0
d 161 5 0
d 162 0
d 163 0
d 164 14 49 0
d 165 0
d 166 13 0
d 167 0
d 168 0
d 169 10 28 0
d 170 0
d 171 38 0
d 172 25 0
d 173 10 39 0
d 174 0
d 175 6 0
d 176 0
d 177 3 52 0
d 178 0
d 179 40 0
d 180 48 0
d 181 0
d 182 30 59 0
d 183 0
d 184 0
d 185 0
d 186 0
d 187 10 0
d 188 44 0
d 189 31 0
d 190 3 0
d 191 0
d 192 56 0
d 193 0
d 194 24 49 0
d 195 23 0
d 196 3 0
d 197 1 45 0
d 198 0
d 199 19 59 0
d 200 0
d 201 4 0
d 202 0
d 203 32 0
d 204 4 0
d 205 39 0
d 206 0
d 207 9 0
d 208 0
d 209 4 40 0
d 210 23 0
d 211 11 0
d 212 0
d 213 36 0
d 214 6 33 0
d 215 0
d 216 0
d 217 11 35 0
d 218 0
d 219 13 23 0
d 220 0
d 221 1 20 0
d 222 0
d 223 47 0
d 224 0
d 225 0
d 226 2 0
d 227 21 0
d 228 42 0
d 229 9 0
d 230 0
d 231 0
d 232 0
d 233 19 0
d 234 26 0
d 235 29 45 0
d 236 49 0
d 237 0
d 238 17 58 0
d 239 37 0
d 240 0
d 241 0
d 242 6 0
d 243 40 0
d 244 12 0
d 245 0
d 246 50 0
d 247 50 0
d 248 0
d 249 11 0
d 250 0
d 251 0
d 252 0
d 253 7 0
d 254 0
d 255 0
d 256 0
d 257 35 0
d 258 0
d 259 50 0
d 260 57 0
d 261 14 20 0
d 262 32 0
d 263 31 57 0
d 264 53 0
d 265 0
d 266 0
d 267 15 0
d 268 0
d 269 0
d 270 0
d 271 0
d 272 50 0
d 273 0
d 274 41 0
d 275 0
d 276 7 0
d 277 22 0
d 278 0
d 279 25 0
d 280 0
d 281 14 0
d 282 34 0
d 283 0
d 284 0
d 285 0
d 286 0
d 287 0
d 288 0
d 289 12 0
d 290 27 0
d 291 9 0
d 292 24 0
d 293 0
d 294 11 0
d 295 0
d 296 58 0
d 297 6 0
d 298 12 0
d 299 0
d 300 12 0
d 301 0
d 302 10 0
d 303 28 0
d 304 0
d 305 0
d 306 0
d 307 8 0
d 308 0
d 309 0
d 310 0
d 311 50 0
d 312 55 0
d 313 0
d 314 0
d 315 19 0
d 316 0
d 317 20 44 0
d 318 0
d 319 7 21 0
d 320 12 0
d 321 4 0
d 322 0
d 323 0
d 324 0
d 325 21 59 0
d 326 26 0
d 327 0
d 328 0
d 329 46 0
d 330 0
d 331 0
d 332 9 0
d 333 37 40 0
d 334 0
d 335 0
d 336 0
d 337 0
d 338 0
d 339 0
d 340 0
d 341 0
d 342 5 0
d 343 2 0
d 344 2 0
d 345 0
d 346 0
d 347 18 0
d 348 0
d 349 0
d 350 25 0
d 351 0
d 352 31 58 0
d 353 58 60 0
d 354 0
d 355 0
d 356 0
d 357 35 0
d 358 52 0
d 359 0
d 360 0
d 361 0
d 362 19 0
d 363 0
d 364 0
d 365 38 0
d 366 15 0
d 367 40 0
d 368 0
d 369 0
d 370 18 0
d 371 2 30 0
d 372 0
d 373 0
d 374 51 0
d 375 0
d 376 40 57 0
d 377 39 0
d 378 22 0
d 379 0
d 380 0
d 381 32 0
d 382 0
d 383 0
d 384 24 0
d 385 57 0
d 386 0
d 387 35 0
d 388 0
d 389 0
d 390 24 0
d 391 17 0
d 392 0
d 393 29 0
d 394 2 0
d 395 0
d 396 0
d 397 0
d 398 6 0
d 399 0
d 400 43 0
d 401 0
d 402 60 0
d 403 46 0
d 404 19 0
d 405 20 42 0
d 406 0
d 407 0
d 408 33 0
d 409 49 0
d 410 4 50 0
d 411 11 0
d 412 0
d 413 0
d 414 0
d 415 0
d 416 0
d 417 0
d 418 0
d 419 0
d 420 0
d 421 47 55 0
d 422 0
d 423 33 0
d 424 0
d 425 41 0
d 426 54 60 0
d 427 0
d 428 0
d 429 33 0
d 430 0
d 431 31 0
d 432 21 0
d 433 0
d 434 15 0
d 435 0
d 436 5 0
d 437 44 0
d 438 51 0
d 439 4 0
d 440 0
d 441 0
d 442 14 0
d 443 0
d 444 0
d 445 39 0
d 446 50 0
d 447 42 0
d 448 16 43 54 0
d 449 58 0
d 450 0
d 451 0
d 452 0
d 453 48 0
d 454 1 15 0
d 455 0
d 456 0
d 457 0
d 458 43 0
d 459 0
d 460 9 0
48 -98 -108 0
83 -101 -113 0
102 105 -119 0
-98 116 119 0
77 78 -121 0
-61 -72 121 0
65 -76 121 0
61 -104 125 0
67 122 127 0
-68 -118 -129 0
16 94 129 0
72 133 134 0
75 -128 135 0
-59 101 136 0
-103 125 136 0
-79 -95 -139 0
77 -85 139 0
-74 77 -140 0
-7 -135 -141 0
90 146 148 0
-49 129 150 0
82 -144 151 0
79 -96 -154 0
116 133 -154 0
-130 143 -154 0
-76 123 -155 0
-123 146 157 0
-27 148 157 0
-78 131 159 0
103 -153 159 0
128 -148 -160 0
-78 -84 -163 0
78 -95 -163 0
-81 113 167 0
-113 146 -168 0
148 167 -168 0
82 92 -169 0
-96 169 170 0
100 -134 -171 0
-98 -155 171 0
-119 -148 172 0
-101 170 172 0
99 -120 173 0
106 -107 -174 0
80 81 175 0
90 -164 176 0
-79 -150 177 0
-78 170 -179 0
140 163 179 0
-101 -121 -182 0
80 128 -182 0
-99 -147 -183 0
-68 -101 184 0
110 -133 184 0
-89 -134 185 0
165 -178 186 0
163 179 -188 0
115 -119 188 0
-109 -174 188 0
60 -77 -189 0
-121 -181 190 0
-112 -152 191 0
-24 149 -192 0
134 -186 -192 0
-89 91 -193 0
-61 -98 -193 0
-135 -136 -194 0
119 133 195 0
112 155 -196 0
-115 176 -196 0
186 193 -196 0
79 175 196 0
-131 173 -197 0
-1 107 197 0
136 153 197 0
19 122 199 0
-101 164 -200 0
141 189 -200 0
-116 138 200 0
-146 -192 200 0
-103 136 202 0
-32 -113 -203 0
-178 188 203 0
1 -197 204 0
74 -171 -205 0
-183 197 -206 0
-144 154 206 0
-9 188 207 0
-3 -140 208 0
-115 -159 208 0
-62 171 208 0
105 152 -209 0
38 171 209 0
-62 -105 210 0
123 164 -211 0
130 -178 -211 0
154 157 -212 0
-149 175 -212 0
170 -209 212 0
72 -100 214 0
110 111 214 0
-76 -139 214 0
-100 176 214 0
-130 -186 214 0
-66 188 -215 0
-73 -114 -216 0
200 -202 -216 0
83 -114 -217 0
71 157 -217 0
102 -107 217 0
61 -83 -220 0
-98 103 -220 0
136 -145 220 0
87 -165 -221 0
-75 -89 221 0
127 131 221 0
-83 189 222 0
-200 203 222 0
-200 -220 222 0
-156 220 222 0
47 81 -223 0
-170 172 223 0
-66 -112 224 0
62 -182 -225 0
-125 -184 226 0
84 -193 226 0
65 -205 226 0
103 -224 228 0
153 -206 -229 0
161 -187 229 0
-160 203 229 0
86 207 229 0
163 193 230 0
61 -135 -231 0
125 146 -231 0
136 169 -231 0
212 226 -231 0
75 -176 231 0
-95 228 -232 0
-104 115 -233 0
-60 -77 233 0
166 -175 233 0
162 194 233 0
-80 86 234 0
143 164 234 0
137 -172 235 0
-64 185 236 0
117 134 -237 0
-73 214 -237 0
-115 -172 -238 0
-103 -188 -238 0
142 188 -238 0
-56 -192 -238 0
116 118 238 0
-17 -198 238 0
-112 -118 -239 0
79 128 239 0
221 228 239 0
-133 229 239 0
64 -189 -240 0
95 230 -240 0
-70 163 240 0
-116 -207 240 0
-72 222 -241 0
192 -200 -242 0
199 -211 -242 0
-97 -140 -244 0
-90 201 -244 0
164 -190 244 0
110 -199 244 0
96 -98 -245 0
140 216 -245 0
92 152 -246 0
-28 -169 -246 0
111 186 -246 0
-36 213 -246 0
180 -246 -247 0
66 172 247 0
130 196 247 0
202 212 247 0
-50 246 247 0
204 -232 248 0
66 75 -249 0
-222 -244 -249 0
-137 -177 249 0
201 216 249 0
87 -229 -251 0
191 219 251 0
-84 -170 252 0
203 -247 -254 0
125 235 -255 0
-114 -124 255 0
-89 139 255 0
-87 -211 255 0
-104 232 255 0
153 -192 -256 0
99 186 256 0
-145 -218 256 0
35 -152 257 0
-156 189 257 0
-173 -218 257 0
-120 -201 -258 0
-240 -245 -258 0
-75 76 258 0
104 127 258 0
-66 -137 258 0
-74 -190 258 0
-218 -251 258 0
85 -172 -259 0
-207 -222 -259 0
154 -199 259 0
194 -243 259 0
147 163 -260 0
106 -230 -260 0
87 141 -261 0
119 -243 -261 0
-106 -152 261 0
110 113 262 0
31 97 -263 0
256 -258 -263 0
-113 -140 263 0
-119 167 263 0
93 -235 263 0
-57 254 263 0
-78 151 -264 0
96 -242 264 0
114 247 264 0
-94 173 -265 0
-155 -250 -265 0
148 262 -265 0
61 -136 265 0
-111 151 -266 0
-244 -252 266 0
221 260 266 0
102 126 -267 0
86 -149 -267 0
175 -229 267 0
201 248 267 0
173 -181 -268 0
-176 -247 -268 0
-180 247 -268 0
189 -229 268 0
-212 254 268 0
-68 114 -269 0
-173 197 -269 0
-222 -230 -269 0
45 -235 -269 0
239 248 269 0
-113 190 -270 0
-221 228 -270 0
-104 163 270 0
83 -203 270 0
176 -250 270 0
97 -172 -271 0
-194 -241 -271 0
-79 214 271 0
180 246 -272 0
50 -226 272 0
37 151 -273 0
-150 -253 -273 0
84 -99 -274 0
-199 200 -274 0
-92 255 274 0
87 239 -275 0
-175 249 -275 0
74 273 -275 0
73 -182 -276 0
117 188 -276 0
41 274 276 0
106 -226 -277 0
218 -255 -277 0
-114 -138 277 0
125 159 277 0
-129 160 277 0
-27 -141 -278 0
-101 -133 278 0
134 -225 278 0
-154 237 278 0
-121 -167 -279 0
-25 202 -279 0
157 -230 279 0
-78 230 279 0
-135 244 -280 0
99 248 -280 0
139 159 281 0
144 -272 281 0
154 -166 -282 0
-112 -207 -282 0
-126 237 282 0
255 258 282 0
68 136 -283 0
205 252 -283 0
105 191 283 0
68 -245 283 0
93 -248 283 0
-87 -229 -284 0
80 246 -284 0
-92 190 284 0
-95 110 285 0
-87 -225 285 0
153 275 285 0
112 212 -286 0
-153 -222 -287 0
121 -282 -287 0
-177 210 287 0
84 228 287 0
114 -165 288 0
-121 -257 288 0
110 -258 288 0
-183 -228 -289 0
-123 265 -289 0
192 245 289 0
91 -100 -290 0
211 -251 -290 0
-215 244 290 0
-236 -289 290 0
-107 134 291 0
-116 139 -292 0
-99 277 -292 0
186 -217 292 0
88 206 -293 0
81 -155 293 0
-71 161 293 0
189 -210 293 0
-154 -244 293 0
-231 -265 293 0
124 -277 293 0
-11 116 -294 0
122 236 -294 0
-111 261 -294 0
-108 -181 294 0
-103 218 294 0
235 253 294 0
181 -219 -295 0
171 281 -295 0
-163 292 295 0
76 126 -296 0
220 -228 -296 0
195 -244 -296 0
141 -292 -296 0
-147 -202 296 0
198 -271 296 0
-142 -146 -297 0
152 -244 -297 0
-73 128 -298 0
-148 -161 -298 0
64 272 -298 0
-69 -80 -299 0
-167 176 -299 0
-287 -289 -299 0
126 296 -299 0
-188 -216 299 0
-46 152 -300 0
82 -129 300 0
-74 175 300 0
120 -144 -301 0
-79 -128 301 0
-123 281 301 0
75 -287 301 0
161 -299 -302 0
-64 -103 302 0
83 -172 302 0
-251 -262 302 0
-119 129 -303 0
157 183 -303 0
101 227 -303 0
128 -240 -303 0
174 183 303 0
-79 -213 303 0
209 238 303 0
201 273 303 0
91 -296 303 0
-100 160 -304 0
69 -202 -305 0
-70 292 -305 0
-209 -252 305 0
-130 -281 305 0
-201 -214 -306 0
-205 295 -306 0
244 301 -306 0
89 127 306 0
-130 150 306 0
-96 194 306 0
150 -199 306 0
-114 117 -307 0
-137 183 -307 0
-183 246 -307 0
135 -296 -307 0
97 305 -307 0
-8 -86 307 0
117 121 307 0
-73 -165 307 0
-155 -194 -308 0
78 231 308 0
92 -266 308 0
71 -217 -309 0
81 292 -309 0
-137 -163 309 0
-147 196 309 0
-97 -214 309 0
198 229 309 0
-144 147 -310 0
-185 257 -310 0
114 135 310 0
-85 -157 310 0
-104 301 310 0
-62 67 -311 0
-223 -299 -311 0
-88 237 -312 0
175 -214 312 0
-213 -245 312 0
146 -247 -314 0
88 -260 -314 0
72 -92 314 0
83 -289 314 0
-66 -73 -315 0
89 -207 -315 0
-170 268 -315 0
123 -286 315 0
-153 -165 -316 0
-121 -252 -316 0
77 173 316 0
226 -262 316 0
176 205 -317 0
44 -206 -317 0
228 -245 -317 0
-176 233 317 0
-158 -218 -318 0
-66 -220 -318 0
-246 282 -318 0
-64 284 -318 0
-107 -124 318 0
-151 238 318 0
-242 -283 318 0
-119 -299 318 0
208 -304 318 0
86 300 -319 0
74 -284 319 0
141 -237 -320 0
-252 260 -320 0
12 -279 -320 0
-97 110 320 0
126 -166 320 0
109 -179 320 0
285 291 320 0
75 -310 320 0
304 -311 -321 0
-78 -320 -321 0
78 -219 321 0
141 -219 321 0
-213 -223 321 0
-128 246 321 0
148 241 322 0
249 -252 322 0
-10 -173 -323 0
-156 185 -323 0
-147 204 -323 0
-143 301 -323 0
-147 -200 323 0
-215 252 323 0
171 -299 -324 0
252 316 -324 0
235 319 -324 0
90 149 324 0
-84 -150 324 0
123 -155 324 0
200 -211 324 0
198 229 -325 0
136 -263 -325 0
-98 -311 -325 0
-67 -103 -326 0
121 -276 -326 0
119 -314 -326 0
153 171 326 0
192 -250 326 0
-261 272 326 0
-109 -285 326 0
120 307 326 0
-192 323 326 0
192 -213 -327 0
296 311 -327 0
186 229 327 0
231 261 327 0
-236 270 327 0
179 280 327 0
69 76 -328 0
-86 94 -328 0
114 176 -328 0
184 -204 -328 0
216 -319 -328 0
174 241 328 0
198 -306 328 0
150 -308 328 0
99 -316 328 0
307 319 328 0
-203 325 328 0
-152 -154 -329 0
-115 -322 -329 0
-189 312 -331 0
-80 224 331 0
-166 -273 331 0
310 320 331 0
79 81 -332 0
-64 -123 -332 0
123 -136 -332 0
216 329 -332 0
-157 -206 332 0
107 290 332 0
254 -315 332 0
-91 -190 -333 0
257 261 -333 0
-162 324 -333 0
159 318 333 0
134 -329 333 0
216 231 -334 0
-146 263 -334 0
-112 287 -334 0
-114 -161 334 0
66 -154 -335 0
216 -248 -335 0
-239 -292 -335 0
143 276 336 0
-294 302 336 0
148 217 -337 0
135 -234 -337 0
-75 298 -337 0
-96 119 337 0
-70 124 337 0
-64 -234 337 0
-70 -97 -338 0
152 226 -338 0
104 240 -338 0
198 -275 -338 0
175 -327 -338 0
91 207 338 0
-260 275 338 0
-214 247 -339 0
-165 252 -339 0
66 279 -339 0
212 -287 -339 0
142 146 339 0
-106 -256 339 0
273 -298 339 0
-104 -322 339 0
155 325 339 0
-83 127 340 0
-227 228 340 0
-247 278 340 0
-213 294 340 0
-222 329 340 0
-86 199 -341 0
270 296 341 0
166 -323 341 0
88 327 341 0
157 158 342 0
86 317 342 0
254 330 342 0
278 298 -343 0
-110 111 343 0
88 -168 -344 0
-175 -206 -344 0
-63 -221 -344 0
-136 241 -344 0
-169 256 -344 0
241 -265 -344 0
146 273 -344 0
-171 279 -344 0
-2 332 -344 0
137 332 -344 0
-105 202 344 0
-170 260 344 0
73 -261 344 0
-287 311 344 0
-123 208 -345 0
127 135 345 0
284 327 345 0
-102 130 -346 0
-72 -190 -346 0
-153 227 346 0
-188 235 346 0
120 -278 346 0
201 285 346 0
64 296 346 0
-168 269 -347 0
-18 290 -347 0
190 -208 347 0
-143 282 347 0
62 -101 -348 0
-170 333 -348 0
64 146 348 0
-237 -241 348 0
237 264 -349 0
261 280 -349 0
-213 283 -349 0
-108 294 -349 0
143 321 -349 0
-145 334 -349 0
210 245 349 0
85 264 349 0
-277 -324 349 0
285 -342 349 0
-292 -294 -350 0
-102 -307 -350 0
-25 313 -350 0
-146 -322 -350 0
137 -331 -350 0
167 173 350 0
182 -207 350 0
168 218 350 0
-129 225 350 0
-146 -291 -351 0
247 -292 -351 0
176 -300 -351 0
96 -311 -351 0
273 314 -351 0
-176 -270 351 0
-58 -117 -352 0
73 -168 -352 0
261 295 -352 0
-150 -337 -352 0
-168 339 352 0
168 -337 -353 0
-305 -340 -353 0
-130 -257 -354 0
99 274 -354 0
-186 328 -354 0
-145 350 354 0
198 -210 355 0
244 -309 355 0
-309 -334 355 0
140 149 -356 0
125 161 -356 0
-121 -171 -356 0
108 -189 -356 0
-154 -230 -356 0
-112 -257 -356 0
-135 288 -356 0
-314 337 -356 0
-26 137 356 0
-117 150 356 0
-181 -210 356 0
-111 309 356 0
-113 350 356 0
265 -271 -357 0
181 301 -357 0
-138 -338 -357 0
229 -354 -357 0
-183 -243 357 0
68 -294 357 0
303 -332 357 0
-89 146 -358 0
-245 -250 -358 0
146 -290 -358 0
-140 299 -358 0
144 -323 -358 0
-80 -130 358 0
188 -199 358 0
-202 -259 358 0
222 -305 358 0
113 -306 358 0
150 -357 358 0
-188 219 -359 0
-107 -329 -359 0
-193 338 -359 0
-212 289 359 0
100 -280 -360 0
-130 -183 360 0
115 -202 360 0
169 249 360 0
-159 -278 360 0
-278 293 360 0
-250 -338 360 0
147 201 -361 0
208 -227 -361 0
-266 346 -361 0
-235 -257 361 0
-61 175 -362 0
144 255 -362 0
-170 -259 -362 0
-241 -330 -362 0
64 343 -362 0
-19 75 362 0
277 -288 362 0
83 101 -363 0
-184 213 -363 0
-119 229 -363 0
130 243 -363 0
256 264 -363 0
-146 162 363 0
157 201 363 0
72 -267 363 0
-263 -355 363 0
127 -135 -364 0
169 177 -364 0
122 205 -364 0
315 322 -364 0
85 174 364 0
-113 -315 364 0
-232 317 364 0
-227 -259 -365 0
109 -286 -365 0
-217 -317 -365 0
-290 -320 -365 0
-229 360 -365 0
-4 204 365 0
-140 255 -366 0
-76 189 366 0
187 -269 366 0
71 -203 -367 0
224 285 -367 0
-217 293 -367 0
330 339 -367 0
-23 -219 -368 0
185 232 -368 0
-171 -245 -368 0
260 319 -368 0
229 -325 -368 0
62 -330 -368 0
-146 299 368 0
275 313 368 0
267 339 368 0
96 255 -369 0
143 280 -369 0
212 -329 369 0
-140 158 -370 0
87 -204 -370 0
137 234 -370 0
92 -308 -370 0
112 -326 -370 0
-120 139 370 0
-82 -156 370 0
-170 205 370 0
174 -230 370 0
63 308 370 0
340 359 370 0
30 -79 -371 0
89 270 -371 0
-233 -329 -371 0
-182 -340 -371 0
-128 -285 371 0
66 324 371 0
133 352 371 0
-72 -101 -372 0
92 208 -372 0
-89 -210 -372 0
100 -235 -372 0
-153 -191 -373 0
100 292 -373 0
-155 162 373 0
-6 175 373 0
-83 -178 373 0
116 -350 373 0
-75 111 -374 0
176 -249 -374 0
-116 260 -374 0
72 214 374 0
321 331 374 0
143 -245 -375 0
147 -298 -375 0
-233 -325 -375 0
235 -326 -375 0
-173 -235 375 0
-211 -238 375 0
118 259 375 0
89 -313 375 0
312 -337 375 0
-324 -357 375 0
-61 -197 -376 0
98 -246 -376 0
116 258 -376 0
222 -271 -376 0
163 316 -376 0
-118 159 376 0
165 229 376 0
-65 -310 376 0
86 -333 376 0
-263 340 376 0
40 179 -377 0
100 -141 -378 0
79 275 -378 0
159 210 -379 0
-178 -317 -379 0
-109 323 -379 0
199 -345 -379 0
115 144 379 0
-94 -184 379 0
-94 -238 379 0
227 317 379 0
317 -330 379 0
-278 376 379 0
-101 282 -380 0
210 -340 -380 0
-135 171 380 0
96 -215 380 0
66 -312 380 0
192 -208 -381 0
-71 238 -381 0
155 -281 -381 0
-260 317 -381 0
252 -327 -381 0
313 -344 -381 0
-102 -110 381 0
-73 146 381 0
269 -270 381 0
193 318 381 0
76 338 381 0
-206 -369 381 0
136 -375 381 0
-194 308 -382 0
-115 -379 -382 0
88 -90 382 0
-97 -121 382 0
86 -293 382 0
72 -350 382 0
-357 358 382 0
137 -186 -383 0
-254 -285 -383 0
-231 334 -383 0
-79 -186 383 0
100 -106 -384 0
198 208 -384 0
248 -322 -384 0
-211 -358 -384 0
-104 -113 384 0
182 189 384 0
260 -325 384 0
-170 211 -385 0
195 226 -385 0
78 -173 385 0
-134 302 385 0
102 -357 385 0
-81 115 -386 0
-127 161 -386 0
-131 -263 -386 0
240 -332 -386 0
-146 347 -386 0
353 354 -386 0
-188 356 -386 0
-280 -382 -386 0
-62 239 386 0
122 -370 386 0
79 -268 -387 0
69 -226 387 0
149 257 387 0
165 261 387 0
-192 -299 387 0
314 -315 387 0
248 -354 387 0
-126 138 -388 0
-104 218 388 0
-254 293 388 0
99 310 388 0
-169 -289 -389 0
-264 351 -389 0
126 376 -389 0
182 290 389 0
102 -166 -390 0
80 -175 -390 0
-127 -204 -390 0
197 206 -390 0
-247 255 -390 0
303 -363 -390 0
-228 382 -390 0
-70 140 390 0
194 -285 390 0
376 385 390 0
5 161 -391 0
-101 -170 -391 0
159 -299 -391 0
282 -328 -391 0
79 341 -391 0
375 383 -391 0
323 -388 -391 0
64 -65 391 0
286 296 391 0
17 317 391 0
312 373 391 0
-100 -381 391 0
-232 -306 -392 0
107 385 -392 0
157 190 -393 0
227 287 -393 0
300 -321 -393 0
110 -351 -393 0
243 368 -393 0
-233 373 -393 0
118 -144 393 0
-88 -90 -394 0
66 -135 -394 0
83 148 -394 0
-142 -229 -394 0
-260 358 -394 0
267 -360 -394 0
-75 377 -394 0
-74 -191 394 0
96 358 394 0
-164 -167 -395 0
-52 -177 -395 0
-124 359 -395 0
281 360 -395 0
205 -264 395 0
-274 313 395 0
-138 319 395 0
21 325 395 0
88 -369 395 0
101 -202 -396 0
-224 264 -396 0
-254 -347 -396 0
293 352 -396 0
-136 -208 396 0
71 -219 396 0
-194 255 396 0
193 -349 -397 0
-240 -373 -397 0
334 381 -397 0
330 -396 -397 0
98 -164 397 0
-360 -390 397 0
-104 290 -398 0
339 -374 -398 0
77 -220 398 0
191 -284 -399 0
-298 309 -399 0
211 329 -399 0
77 -104 399 0
101 120 399 0
29 235 399 0
43 151 -400 0
143 234 -400 0
-96 261 -400 0
-117 -291 -400 0
-153 213 400 0
-115 244 400 0
112 264 400 0
93 -359 400 0
109 -153 -401 0
165 -303 -401 0
228 314 -401 0
349 398 -401 0
-351 400 -401 0
117 -225 401 0
-71 -238 401 0
70 -295 401 0
-338 -353 401 0
321 384 401 0
-134 386 401 0
34 282 -402 0
268 389 -402 0
-239 -393 -402 0
-112 202 402 0
67 206 402 0
336 349 402 0
-130 365 402 0
-66 140 -403 0
-72 179 -403 0
-195 251 -403 0
321 358 403 0
68 -204 -404 0
62 -241 -404 0
262 293 -404 0
139 313 -404 0
141 340 -404 0
-102 -149 404 0
-203 -218 404 0
-180 -238 404 0
-340 342 404 0
86 128 -405 0
-168 -222 -405 0
158 -269 -405 0
20 281 -405 0
-329 360 -405 0
-119 398 405 0
221 400 405 0
82 -134 -406 0
-107 -283 -406 0
-67 304 -406 0
-86 -314 -406 0
-149 -322 -406 0
-316 -339 406 0
259 -356 406 0
-274 -387 406 0
272 305 -407 0
221 -343 -407 0
-194 213 407 0
-198 -315 407 0
296 356 407 0
75 276 -408 0
-64 -108 408 0
152 180 408 0
-210 -253 408 0
-109 361 408 0
-33 -365 408 0
392 -399 408 0
253 257 -409 0
99 -384 409 0
299 -323 -410 0
75 406 -410 0
101 180 410 0
153 244 410 0
-180 185 -411 0
90 245 -411 0
246 -251 -411 0
209 266 -411 0
-111 -288 -411 0
-136 -381 -411 0
86 -404 -411 0
366 -408 411 0
-249 -252 -412 0
142 257 -412 0
-75 -124 412 0
-215 -236 412 0
-165 237 412 0
-206 280 412 0
245 404 412 0
-265 -405 412 0
-70 114 -413 0
-112 -177 -413 0
69 -266 -413 0
303 372 -413 0
-61 -407 -413 0
-104 224 413 0
-230 236 413 0
53 264 413 0
-88 -270 413 0
-87 -286 413 0
-123 314 413 0
-273 -322 413 0
-122 356 413 0
188 213 -414 0
-205 273 -414 0
-74 -285 -414 0
22 378 -414 0
105 -137 414 0
-76 207 414 0
88 224 -415 0
156 -258 -415 0
-309 -339 -415 0
105 -232 415 0
-139 253 415 0
-330 373 415 0
163 390 415 0
-216 -406 415 0
105 128 -416 0
-103 172 -416 0
-277 -357 -416 0
-262 -385 -416 0
116 -253 416 0
238 275 416 0
-178 322 416 0
-141 -374 416 0
-180 385 416 0
-178 -394 416 0
246 408 416 0
-97 -116 -417 0
149 258 -417 0
266 -328 -417 0
328 344 -417 0
246 348 -417 0
-337 -389 -417 0
70 106 417 0
112 -252 417 0
135 -259 417 0
89 274 417 0
203 -278 417 0
-270 311 417 0
-130 336 417 0
270 337 417 0
199 -361 417 0
-110 -138 -418 0
71 -197 -418 0
241 -288 -418 0
-246 -378 -418 0
207 403 -418 0
-212 221 418 0
135 -242 418 0
69 276 418 0
187 318 418 0
-68 319 418 0
-209 -371 418 0
251 391 418 0
-76 262 -419 0
-167 326 -419 0
364 -374 -419 0
-359 411 -419 0
182 -275 419 0
243 -298 419 0
-278 318 419 0
357 -374 419 0
237 257 -420 0
78 288 -420 0
253 325 -420 0
-321 -344 -420 0
309 399 -420 0
-117 -268 420 0
-239 -272 420 0
-271 -275 420 0
-234 296 420 0
195 -354 420 0
355 -356 420 0
272 -376 420 0
-55 133 -421 0
175 259 -421 0
230 330 -421 0
139 344 -421 0
138 -395 -421 0
215 244 421 0
-81 246 421 0
140 -275 421 0
-242 -291 421 0
-62 299 421 0
-80 -328 421 0
124 -344 421 0
115 -388 421 0
-112 -142 -422 0
-167 294 -422 0
111 330 -422 0
-81 335 -422 0
-88 -142 422 0
98 289 422 0
-96 -290 422 0
118 323 422 0
-348 358 422 0
182 -394 422 0
-171 261 -423 0
-250 -315 -423 0
288 -368 -423 0
110 -211 423 0
257 328 423 0
168 -342 423 0
-412 -420 423 0
-86 104 -424 0
-142 -221 -424 0
-196 308 -424 0
-92 314 -424 0
-139 337 -424 0
371 374 -424 0
109 -393 -424 0
70 -200 424 0
189 201 424 0
-73 224 424 0
-86 327 424 0
371 -407 424 0
-133 -192 -425 0
-78 230 -425 0
-174 -346 -425 0
298 363 -425 0
134 -382 -425 0
-350 -391 -425 0
80 -395 -425 0
-148 167 425 0
186 209 425 0
185 -288 425 0
-164 -305 425 0
106 -352 425 0
359 399 425 0
-148 -417 425 0
410 423 425 0
62 91 -426 0
119 -148 -426 0
-67 -181 -426 0
-197 201 -426 0
246 271 -426 0
272 -280 -426 0
-347 379 -426 0
-365 -406 -426 0
382 -417 -426 0
280 -342 426 0
130 -374 426 0
-105 -220 -427 0
-139 376 -427 0
142 -293 427 0
-176 -299 427 0
230 -304 427 0
-87 -351 427 0
-176 367 427 0
-239 -407 427 0
67 -410 427 0
-67 216 -428 0
-118 -270 -428 0
-269 341 -428 0
239 -356 -428 0
193 -370 -428 0
330 -400 -428 0
-310 -326 428 0
-117 -336 428 0
-299 -380 428 0
191 -391 428 0
382 -391 428 0
-136 -271 -429 0
130 -309 -429 0
211 -245 429 0
-140 256 429 0
256 -291 429 0
-261 353 429 0
366 -385 429 0
87 -160 -430 0
91 229 -430 0
-211 287 -430 0
195 290 -430 0
-318 324 -430 0
-133 326 -430 0
305 -364 -430 0
192 -372 -430 0
120 154 430 0
-73 -237 430 0
187 -274 430 0
-182 282 430 0
-156 322 -431 0
304 -348 -431 0
169 -212 431 0
198 -240 431 0
-147 -247 431 0
-222 -285 431 0
114 -357 431 0
-171 265 -432 0
154 -313 -432 0
189 338 -432 0
-106 425 -432 0
180 -431 -432 0
153 -286 432 0
-272 298 432 0
-125 220 -433 0
-119 237 -433 0
180 -384 -433 0
-396 -423 -433 0
-215 309 433 0
-300 325 433 0
74 -351 433 0
66 -158 -434 0
64 186 -434 0
89 205 -434 0
194 213 -434 0
-233 -253 -434 0
207 -287 -434 0
248 -339 -434 0
232 386 -434 0
-15 160 434 0
203 -209 434 0
132 246 434 0
164 -259 434 0
-252 -277 434 0
-212 280 434 0
-188 -348 434 0
262 -398 434 0
-409 428 434 0
85 -120 -435 0
-172 401 -435 0
-241 419 -435 0
156 180 435 0
-135 -292 435 0
279 400 435 0
-80 91 -436 0
-158 -295 -436 0
-255 341 -436 0
-90 101 436 0
161 371 436 0
231 376 436 0
-161 386 436 0
-216 -402 436 0
-385 414 436 0
103 119 -437 0
115 -159 -437 0
-127 249 -437 0
-316 -379 -437 0
275 -337 437 0
-315 388 437 0
256 -413 437 0
-112 173 -438 0
-116 -198 -438 0
-179 208 -438 0
-14 -261 -438 0
-73 -282 -438 0
252 294 -438 0
87 -304 -438 0
223 -354 -438 0
275 386 -438 0
323 401 -438 0
239 -416 -438 0
-96 128 438 0
51 -151 438 0
42 156 438 0
146 -237 438 0
-192 -277 438 0
94 321 438 0
303 -368 438 0
107 170 -439 0
-175 -184 -439 0
139 242 -439 0
311 350 -439 0
66 -435 -439 0
-171 -181 439 0
272 -403 439 0
-13 -88 -440 0
-139 -228 -440 0
88 -235 -440 0
182 263 -440 0
206 352 -440 0
-365 -420 -440 0
61 124 440 0
85 -126 440 0
125 -199 440 0
174 -259 440 0
128 -358 440 0
-171 -418 440 0
111 -183 -441 0
-189 -370 -441 0
283 422 -441 0
107 436 -441 0
-67 80 441 0
89 182 441 0
174 293 441 0
-66 321 441 0
-242 425 441 0
135 226 -442 0
-241 368 -442 0
317 406 -442 0
137 418 -442 0
165 237 442 0
-116 257 442 0
-174 298 442 0
-368 -412 442 0
-256 -426 442 0
-101 106 -443 0
39 -173 -443 0
199 -290 -443 0
298 -364 -443 0
233 -396 -443 0
355 -424 -443 0
186 -224 443 0
168 366 443 0
317 -415 443 0
336 -426 443 0
122 146 -444 0
93 234 -444 0
174 291 -444 0
-285 -324 -444 0
165 380 -444 0
-191 227 444 0
-102 -333 444 0
272 -338 444 0
-97 -412 444 0
270 -339 -445 0
-89 341 -445 0
377 405 -445 0
-370 -413 -445 0
250 -314 445 0
89 -226 -446 0
137 278 -446 0
-204 -396 -446 0
-376 -405 -446 0
326 -439 -446 0
-76 -89 446 0
194 271 446 0
166 278 446 0
-25 279 446 0
-166 322 446 0
-89 -335 446 0
-316 350 446 0
148 -410 446 0
73 -77 -447 0
98 345 -447 0
-163 420 -447 0
-270 -446 -447 0
205 -255 447 0
226 397 447 0
-108 164 -448 0
182 -210 -448 0
-127 227 -448 0
-119 -296 -448 0
240 375 -448 0
329 -416 -448 0
-54 437 -448 0
-229 -236 448 0
-185 -257 448 0
98 280 448 0
113 365 448 0
319 -439 448 0
236 -275 -449 0
-154 -231 449 0
296 412 449 0
-382 -418 449 0
-179 -421 449 0
-330 433 449 0
39 445 449 0
80 108 -450 0
113 -227 -450 0
248 295 -450 0
-200 -298 -450 0
276 -318 -450 0
-88 341 -450 0
-129 141 450 0
-86 224 450 0
195 227 450 0
265 347 450 0
-103 -378 450 0
149 158 -451 0
-204 231 -451 0
72 241 -451 0
-176 262 -451 0
332 344 -451 0
-340 357 -451 0
149 -327 451 0
271 -333 451 0
-111 -346 451 0
131 -358 451 0
85 -413 451 0
-428 -445 451 0
-73 91 -452 0
135 -161 -452 0
-308 -410 -452 0
117 442 -452 0
-71 -201 452 0
153 213 452 0
-185 286 452 0
-107 -292 452 0
-200 -364 452 0
-364 -367 452 0
160 -385 452 0
-103 407 452 0
-72 -109 -453 0
121 -173 -453 0
193 -218 -453 0
-195 228 -453 0
-124 249 -453 0
72 279 -453 0
-116 318 -453 0
-95 320 -453 0
125 -360 -453 0
166 421 -453 0
65 -451 -453 0
136 174 453 0
102 -292 453 0
-234 -395 453 0
-68 -180 -454 0
189 -241 -454 0
-165 250 -454 0
142 257 -454 0
-218 -280 -454 0
-113 309 -454 0
261 -335 -454 0
1 335 -454 0
-326 383 -454 0
79 120 454 0
-243 -286 454 0
318 -379 454 0
-78 -440 454 0
-107 -452 454 0
-116 139 -455 0
-156 249 -455 0
295 -358 -455 0
92 171 455 0
144 -219 455 0
211 -390 455 0
-170 406 455 0
119 -445 455 0
115 316 -456 0
173 -409 -456 0
-121 -295 456 0
125 337 456 0
-135 -383 456 0
-360 400 456 0
-367 415 456 0
78 -426 456 0
152 -427 456 0
-395 431 456 0
94 -442 456 0
213 -448 456 0
-95 -154 -457 0
93 -190 -457 0
68 356 -457 0
-294 431 -457 0
174 253 457 0
-178 321 457 0
-70 346 457 0
-180 346 457 0
99 136 -458 0
92 -195 -458 0
-83 -239 -458 0
263 388 -458 0
-132 -207 458 0
-94 -219 458 0
224 296 -459 0
223 315 -459 0
232 343 -459 0
-284 -375 -459 0
169 -385 -459 0
76 403 -459 0
123 -132 459 0
125 -185 459 0
249 317 459 0
120 332 459 0
353 -369 459 0
-274 378 459 0
-382 -407 459 0
132 -403 -460 0
-133 207 460 0
-143 303 460 0
111 406 460 0
-308 -418 460 0
172 451 460 0
